data/solutions/recovery/wellformed/moderate/binding/wellformed_moderate_instance89/23.sol
Elapsed time: 0.04
Upper bound: 7915.0
Planning weighted value: 447702.0
C[0]=7915.0
C[1]=7791.0
C[2]=7251.0
C[3]=7034.0
C[4]=6793.0
C[5]=6579.0
y[0]=5
y[1]=3
y[2]=4
y[3]=1
y[4]=2
y[5]=0
y[6]=4
y[7]=1
y[8]=0
y[9]=0
y[10]=2
y[11]=2
y[12]=2
y[13]=3
y[14]=2
y[15]=1
y[16]=1
y[17]=0
y[18]=5
y[19]=3
y[20]=4
y[21]=3
y[22]=5
y[23]=4
y[24]=4
y[25]=2
y[26]=1
y[27]=5
y[28]=5
y[29]=5
y[30]=3
y[31]=1
y[32]=3
y[33]=2
y[34]=4
y[35]=4
y[36]=0
y[37]=3
y[38]=0
y[39]=5
y[40]=1
y[41]=0
